
Gurobi 7.5.2 (mac64, Python) logging started Sun Feb 11 11:01:20 2018


Gurobi 7.5.2 (mac64, Python) logging started Sun Feb 11 11:14:58 2018


Gurobi 7.5.2 (mac64, Python) logging started Sun Feb 11 11:20:46 2018


Gurobi 7.5.2 (mac64, Python) logging started Sun Feb 11 11:23:30 2018


Gurobi 7.5.2 (mac64, Python) logging started Sun Feb 11 11:24:57 2018


Gurobi 7.5.2 (mac64, Python) logging started Sun Feb 11 11:25:25 2018


Gurobi 7.5.2 (mac64, Python) logging started Fri Feb 16 15:21:45 2018


Gurobi 7.5.2 (mac64, Python) logging started Fri Feb 16 15:24:59 2018

Academic license - for non-commercial use only

Gurobi 7.5.2 (mac64, Python) logging started Fri Feb 16 15:28:58 2018

Academic license - for non-commercial use only

Gurobi 7.5.2 (mac64, Python) logging started Fri Feb 16 15:29:37 2018

Academic license - for non-commercial use only

Gurobi 7.5.2 (mac64, Python) logging started Fri Feb 16 15:29:50 2018

Academic license - for non-commercial use only

Gurobi 7.5.2 (mac64, Python) logging started Fri Feb 16 15:30:09 2018

Academic license - for non-commercial use only

Gurobi 7.5.2 (mac64, Python) logging started Fri Feb 16 15:31:49 2018

Academic license - for non-commercial use only

Gurobi 7.5.2 (mac64, Python) logging started Fri Feb 16 15:31:59 2018

Academic license - for non-commercial use only

Gurobi 7.5.2 (mac64, Python) logging started Fri Feb 16 15:33:05 2018

Academic license - for non-commercial use only

Gurobi 7.5.2 (mac64, Python) logging started Fri Feb 16 15:34:47 2018

Academic license - for non-commercial use only

Gurobi 7.5.2 (mac64, Python) logging started Fri Feb 16 15:35:31 2018

Academic license - for non-commercial use only

Gurobi 7.5.2 (mac64, Python) logging started Fri Feb 16 15:36:18 2018

Academic license - for non-commercial use only

Gurobi 7.5.2 (mac64, Python) logging started Fri Feb 16 15:36:26 2018

Academic license - for non-commercial use only

Gurobi 7.5.2 (mac64, Python) logging started Fri Feb 16 15:37:32 2018

Academic license - for non-commercial use only

Gurobi 7.5.2 (mac64, Python) logging started Fri Feb 16 15:38:24 2018

Academic license - for non-commercial use only

Gurobi 7.5.2 (mac64, Python) logging started Fri Feb 16 15:38:50 2018

Academic license - for non-commercial use only

Gurobi 7.5.2 (mac64, Python) logging started Fri Feb 16 15:39:54 2018

Academic license - for non-commercial use only

Gurobi 7.5.2 (mac64, Python) logging started Fri Feb 16 15:40:42 2018

Academic license - for non-commercial use only

Gurobi 7.5.2 (mac64, Python) logging started Fri Feb 16 15:43:17 2018

Academic license - for non-commercial use only

Gurobi 7.5.2 (mac64, Python) logging started Fri Feb 16 15:44:20 2018

Academic license - for non-commercial use only

Gurobi 7.5.2 (mac64, Python) logging started Fri Feb 16 15:44:50 2018

Academic license - for non-commercial use only

Gurobi 7.5.2 (mac64, Python) logging started Fri Feb 16 15:51:22 2018

Academic license - for non-commercial use only

Gurobi 7.5.2 (mac64, Python) logging started Fri Feb 16 15:53:28 2018

Academic license - for non-commercial use only

Gurobi 7.5.2 (mac64, Python) logging started Fri Feb 16 15:56:17 2018

Academic license - for non-commercial use only

Gurobi 7.5.2 (mac64, Python) logging started Fri Feb 16 15:57:45 2018

Academic license - for non-commercial use only

Gurobi 7.5.2 (mac64, Python) logging started Fri Feb 16 15:57:51 2018

Academic license - for non-commercial use only

Gurobi 7.5.2 (mac64, Python) logging started Fri Feb 16 15:58:18 2018

Academic license - for non-commercial use only

Gurobi 7.5.2 (mac64, Python) logging started Fri Feb 16 16:03:31 2018

Academic license - for non-commercial use only

Gurobi 7.5.2 (mac64, Python) logging started Fri Feb 16 16:08:38 2018

Academic license - for non-commercial use only
Optimize a model with 462 rows, 289 columns and 1402 nonzeros
Coefficient statistics:
  Matrix range     [1e+00, 2e+17]
  Objective range  [3e-02, 1e+00]
  Bounds range     [4e+03, 4e+03]
  RHS range        [5e+01, 9e+01]
Warning: Model contains large matrix coefficient range
         Consider reformulating model or setting NumericFocus parameter
         to avoid numerical issues.
Presolve removed 114 rows and 16 columns
Presolve time: 0.00s
Presolved: 348 rows, 273 columns, 1224 nonzeros

Iteration    Objective       Primal Inf.    Dual Inf.      Time
       0    7.2923058e+31   1.695313e+12   7.292306e+01      0s

Solved in 0 iterations and 0.01 seconds
Unbounded model

Gurobi 7.5.2 (mac64, Python) logging started Fri Feb 16 16:09:00 2018

Academic license - for non-commercial use only
Optimize a model with 462 rows, 289 columns and 1402 nonzeros
Coefficient statistics:
  Matrix range     [1e+00, 2e+17]
  Objective range  [3e-02, 1e+00]
  Bounds range     [4e+03, 4e+03]
  RHS range        [5e+01, 9e+01]
Warning: Model contains large matrix coefficient range
         Consider reformulating model or setting NumericFocus parameter
         to avoid numerical issues.
Presolve removed 114 rows and 16 columns
Presolve time: 0.00s
Presolved: 348 rows, 273 columns, 1224 nonzeros

Iteration    Objective       Primal Inf.    Dual Inf.      Time
       0    7.2923058e+31   1.695313e+12   7.292306e+01      0s

Solved in 0 iterations and 0.01 seconds
Unbounded model

Gurobi 7.5.2 (mac64, Python) logging started Fri Feb 16 16:09:40 2018

Academic license - for non-commercial use only
Optimize a model with 462 rows, 289 columns and 1402 nonzeros
Coefficient statistics:
  Matrix range     [1e+00, 2e+17]
  Objective range  [3e-02, 1e+00]
  Bounds range     [4e+03, 4e+03]
  RHS range        [5e+01, 9e+01]
Warning: Model contains large matrix coefficient range
         Consider reformulating model or setting NumericFocus parameter
         to avoid numerical issues.
Presolve removed 114 rows and 16 columns
Presolve time: 0.01s
Presolved: 348 rows, 273 columns, 1224 nonzeros

Iteration    Objective       Primal Inf.    Dual Inf.      Time
       0    7.2923058e+31   1.695313e+12   7.292306e+01      0s

Solved in 0 iterations and 0.01 seconds
Unbounded model

Gurobi 7.5.2 (mac64, Python) logging started Fri Feb 16 16:10:14 2018

Academic license - for non-commercial use only
Optimize a model with 462 rows, 289 columns and 1402 nonzeros
Coefficient statistics:
  Matrix range     [1e+00, 2e+17]
  Objective range  [3e-02, 1e+00]
  Bounds range     [4e+03, 4e+03]
  RHS range        [5e+01, 9e+01]
Warning: Model contains large matrix coefficient range
         Consider reformulating model or setting NumericFocus parameter
         to avoid numerical issues.
Presolve removed 114 rows and 16 columns
Presolve time: 0.00s
Presolved: 348 rows, 273 columns, 1224 nonzeros

Iteration    Objective       Primal Inf.    Dual Inf.      Time
       0    7.2923058e+31   1.695313e+12   7.292306e+01      0s

Solved in 0 iterations and 0.00 seconds
Unbounded model

Gurobi 7.5.2 (mac64, Python) logging started Fri Feb 16 16:12:50 2018

Academic license - for non-commercial use only
Optimize a model with 462 rows, 289 columns and 1402 nonzeros
Coefficient statistics:
  Matrix range     [1e+00, 2e+17]
  Objective range  [3e-02, 1e+00]
  Bounds range     [4e+03, 4e+03]
  RHS range        [5e+01, 9e+01]
Warning: Model contains large matrix coefficient range
         Consider reformulating model or setting NumericFocus parameter
         to avoid numerical issues.
Presolve removed 114 rows and 16 columns
Presolve time: 0.01s
Presolved: 348 rows, 273 columns, 1224 nonzeros

Iteration    Objective       Primal Inf.    Dual Inf.      Time
       0    7.2923058e+31   1.695313e+12   7.292306e+01      0s

Solved in 0 iterations and 0.01 seconds
Unbounded model
